22      4       
10      10      10      10      
0       0       0       0       0       3       2       3       4       
9       9       9       4       1       2       5       13      
1       9       5       9       6       1       20      
7       10      1       3       10      1       6       
7       5       8       10      8       1       10      
7       4       9       3       4       1       7       
2       5       6       7       6       1       8       
9       4       1       9       6       1       9       
5       2       4       6       5       1       11      
7       1       10      5       5       1       15      
6       9       3       9       2       1       12      
5       3       8       3       8       1       13      
6       1       6       7       7       1       14      
4       10      6       8       1       1       17      
6       4       1       4       10      1       16      
4       7       6       10      8       1       19      
5       8       7       6       3       2       18      20      
1       5       8       6       6       1       21      
4       7       8       3       9       1       22      
10      5       9       4       3       1       22      
1       3       3       1       7       1       22      
0       0       0       0       0       0       
